p cnf 61 222
4 -2 0
4 3 0
2 -3 -4 0
5 1 0
5 4 0
-1 -4 -5 0
-2 7 -8 0
2 -7 -8 0
-2 -7 8 0
2 7 8 0
9 7 0
9 -1 0
-7 1 -9 0
10 -1 0
10 9 0
1 -9 -10 0
-11 -8 0
-11 -10 0
8 10 11 0
-12 -6 0
-12 -11 0
6 11 12 0
12 -3 -13 0
-12 3 -13 0
12 3 13 0
-12 -3 13 0
14 -5 0
14 -13 0
5 13 -14 0
-16 -15 0
-16 -1 0
15 1 16 0
-2 -17 -18 0
2 17 -18 0
-2 17 18 0
2 -17 18 0
19 -18 0
19 16 0
18 -16 -19 0
20 -19 0
20 -19 0
19 -20 0
16 -20 -21 0
-16 20 -21 0
16 20 21 0
-16 -20 21 0
-22 -21 0
-22 3 0
21 -3 22 0
16 -1 -23 0
-16 1 -23 0
16 1 23 0
-16 -1 23 0
-24 -22 0
-24 23 0
22 -23 24 0
14 24 -25 0
-14 -24 -25 0
14 -24 25 0
-14 24 25 0
6 -15 -26 0
-6 15 -26 0
6 15 26 0
-6 -15 26 0
25 -26 -27 0
-25 26 -27 0
25 26 27 0
-25 -26 27 0
28 11 0
28 15 0
-11 -15 -28 0
29 1 0
29 8 0
-1 -8 -29 0
31 15 0
31 -30 0
-15 30 -31 0
-31 -18 -32 0
31 18 -32 0
-31 18 32 0
31 -18 32 0
-33 -32 0
-33 -17 0
32 17 33 0
18 32 -34 0
-18 -32 -34 0
18 -32 34 0
-18 32 34 0
33 34 -35 0
-33 -34 -35 0
33 -34 35 0
-33 34 35 0
-29 35 -36 0
29 -35 -36 0
-29 -35 36 0
29 35 36 0
-38 -22 0
-38 -37 0
22 37 38 0
39 36 0
39 38 0
-36 -38 -39 0
40 -11 0
40 -4 0
11 4 -40 0
11 -41 -42 0
-11 41 -42 0
11 41 42 0
-11 -41 42 0
43 32 0
43 -7 0
-32 7 -43 0
44 42 0
44 -43 0
-42 43 -44 0
45 -40 0
45 44 0
40 -44 -45 0
-46 9 0
-46 7 0
-9 -7 46 0
47 -44 0
47 46 0
44 -46 -47 0
48 45 0
48 47 0
-45 -47 -48 0
-49 10 0
-49 -21 0
-10 21 49 0
20 44 -50 0
-20 -44 -50 0
20 -44 50 0
-20 44 50 0
-51 -20 0
-51 40 0
20 -40 51 0
52 -50 0
52 51 0
50 -51 -52 0
53 -49 0
53 -52 0
49 52 -53 0
54 10 0
54 2 0
-10 -2 -54 0
-55 34 0
-55 3 0
-34 -3 55 0
56 -54 0
56 -55 0
54 55 -56 0
-57 53 0
-57 56 0
-53 -56 57 0
58 48 0
58 -57 0
-48 57 -58 0
39 58 -59 0
-39 -58 -59 0
39 -58 59 0
-39 58 59 0
-28 59 -60 0
28 -59 -60 0
-28 -59 60 0
28 59 60 0
27 60 -61 0
-27 -60 -61 0
27 -60 61 0
-27 60 61 0
-30 54 -1 49 0
31 4 0
-49 50 0
-26 6 -20 17 0
18 -38 -52 54 58 48 0
6 26 48 0
-20 11 0
-4 -13 24 32 -7 0
-41 14 16 0
-22 1 0
18 -11 -53 -12 0
-17 39 -35 0
-46 -55 -47 -32 51 0
18 -55 -25 23 7 0
16 -56 -50 -52 59 14 0
13 5 18 3 -52 0
-50 -34 54 61 0
6 -53 0
42 -55 -35 37 -38 0
-16 38 -24 -44 0
-8 30 -33 -9 -56 -34 0
-41 -44 27 9 0
-2 20 -12 0
-19 -29 -8 -21 -44 -7 0
-60 44 34 -4 0
61 10 -16 51 -40 0
-44 51 0
23 -24 56 -51 27 -58 0
61 55 0
41 -32 -9 -45 12 -60 0
-59 29 61 55 12 -38 0
34 -59 52 42 -11 61 0
44 -48 0
47 28 26 56 14 19 0
35 -8 -2 -51 27 0
38 -16 0
-34 39 -5 -11 -8 13 0
52 -8 13 -49 46 -55 0
55 36 -38 0
18 59 0
21 -22 42 0
11 -45 -37 -50 0
17 32 6 49 10 0
25 -54 2 0
-59 -19 25 39 3 -49 0
-40 -20 0
-46 34 -1 0
-35 -16 0
-4 10 19 0
36 29 -34 33 -56 0
56 13 34 14 2 -5 0
61 0
